************************************************************************
file with basedata            : mm20_.bas
initial value random generator: 719369707
************************************************************************
projects                      :  1
jobs (incl. supersource/sink ):  12
horizon                       :  67
RESOURCES
  - renewable                 :  2   R
  - nonrenewable              :  2   N
  - doubly constrained        :  0   D
************************************************************************
PROJECT INFORMATION:
pronr.  #jobs rel.date duedate tardcost  MPM-Time
    1     10      0       17        2       17
************************************************************************
PRECEDENCE RELATIONS:
jobnr.    #modes  #successors   successors
   1        1          3           2   3   4
   2        3          2           5   6
   3        3          2          10  11
   4        3          2           5   6
   5        3          1           7
   6        3          3           8   9  10
   7        3          1          11
   8        3          1          11
   9        3          1          12
  10        3          1          12
  11        3          1          12
  12        1          0        
************************************************************************
REQUESTS/DURATIONS:
jobnr. mode duration  R 1  R 2  N 1  N 2
------------------------------------------------------------------------
  1      1     0       0    0    0    0
  2      1     5       0    8   10    0
         2     5       7    0   10    0
         3     7       6    0    0    1
  3      1     1       8    0    0    6
         2     4       0    3    0    6
         3     6       4    0    0    2
  4      1     8       8    0    0   10
         2     9       0    9    0    5
         3    10       0    9    0    2
  5      1     2       0    8    8    0
         2     9       0    6    6    0
         3     9       0    7    5    0
  6      1     1       0    9   10    0
         2     4       0    8    0    6
         3     6       6    0    9    0
  7      1     4       3    0    0    2
         2     5       0    5    7    0
         3     5       3    0    5    0
  8      1     2       0    9    0    7
         2     4       0    7    7    0
         3     5       0    6    0    6
  9      1     1       3    0    0    2
         2     3       0    4    8    0
         3     7       3    0    8    0
 10      1     6       0    1    9    0
         2     6       0    5    8    0
         3     8       6    0    7    0
 11      1     3       0    4    0    3
         2     3       7    0    0    7
         3     4       3    0    6    0
 12      1     0       0    0    0    0
************************************************************************
RESOURCEAVAILABILITIES:
  R 1  R 2  N 1  N 2
   16   20   65   41
************************************************************************
MAXIMAL LAGS:
from  to  type  delay
    1   12   ES      0
    1    2   ES      0
    2   12   ES      0
    1    3   ES      0
    3   12   ES      0
    1    4   ES      0
    4   12   ES      0
    1    5   ES      0
    5   12   ES      0
    1    6   ES      0
    6   12   ES      0
    1    7   ES      0
    7   12   ES      0
    1    8   ES      0
    8   12   ES      0
    1    9   ES      0
    9   12   ES      0
    1   10   ES      0
   10   12   ES      0
    1   11   ES      0
   11   12   ES      0
    1   12   ES      0
    2    5   SS    -11
    2    5   SE    -10
    2    5   ES     -4
    2    5   EE      0
    2    6   SS     -8
    2    6   SE      1
    2    6   ES     -6
    2    6   EE      8
    3   10   SS      4
    3   10   SE     -5
    3   10   ES      8
    3   10   EE      5
    3   11   SS    -12
    3   11   SE      0
    3   11   ES     10
    3   11   EE     -1
    4    5   SS      3
    4    5   SE      5
    4    5   ES      3
    4    5   EE     -1
    4    6   SS      6
    4    6   SE      4
    4    6   ES     -2
    4    6   EE      0
    5    7   SS     -4
    5    7   SE     -7
    5    7   ES    -12
    5    7   EE     -2
    6    8   SS      7
    6    8   SE     -5
    6    8   ES    -12
    6    8   EE     12
    6    9   SS     -4
    6    9   SE    -11
    6    9   ES      3
    6    9   EE      4
    6   10   SS     -1
    6   10   SE     12
    6   10   ES      6
    6   10   EE     -5
    7   11   SS     -7
    7   11   SE     -9
    7   11   ES     -5
    7   11   EE      9
    8   11   SS     -5
    8   11   SE     -4
    8   11   ES      5
    8   11   EE     11
************************************************************************
